language ESSENCE' 1.0
letting initGrid be [
    [1, 2, 3, 2, 3, 2],
[4, 5, 4, 5, 4, 5],
[2, 2, 3, 5, 5, 2],
[1, 5, 1, 2, 4, 4],
[4, 3, 5, 1, 4, 3]
    ]
letting goalBlocksRemaining be 4
letting noSteps be 5
